p tw 26 39
1 12
1 13
1 18
2 4
2 8
2 24
3 20
3 22
3 26
4 14
4 26
5 12
5 13
5 23
6 11
6 16
6 21
7 13
7 14
7 19
8 17
8 24
9 12
9 15
9 23
10 16
10 20
10 25
11 16
11 26
14 17
15 21
15 24
17 20
18 19
18 25
19 22
21 23
22 25
